1000
1000
1000
1000
1000
1000
1000
1000
1000
1000
2000
2000
2000
2000
2000
2000
2000
2000
2000
2000
1000
1000
1000
1000
1000
3000
3000
3000
3000
3000
3000
3000
3000
3000
3000
4000
4000
4000
4000
4000
210
330
495
715
192
448
1024
2304
5120
11264
4000
4000
4000
4000
4000
500
500
500
500
500
5000
5000
5000
5000
5000
5000
5000
5000
5000
5000
10000
10000
10000
10000
10000
10000
10000
10000
10000
10000
